\ENCODING=ISO-8859-1
\Problem name: IloCplex

Maximize
 obj1: 2250 x1 + 3100 x2 + 4000 x3 + 6000 x4 + 2500 x5 + 3600 x6 + 5000 x7
       + 1500 x8 + 2150 x9 + 3000 x10 + 4500 x11 - 5000 x12 - 7500 x13
       - 20000 x14 - 5500 x15 - 9000 x16 - 25000 x17 - 7500 x18 - 9500 x19
       - 22500 x20 - 100 x21 - 125 x22 - 50 x23 - 75 x24 - 50 x25 - 50 x26
Subject To
 c1:  x12 + x15 + x18  = 1
 c2:  x13 + x16 + x19  = 1
 c3:  x14 + x17 + x20 <= 1
 c4:  - x14 - x17 - x20 + x27 <= 0
 c5:  - x14 - x17 - x20 + x27 >= 0
 c6:  x14 + x17 + x20 - x27 <= 0
 c7:  x5 - 63996000000 x12 - 15999000 x15 - 5333 x18 <= 0
 c8:  x6 - 755950000 x12 - 650000 x15 - 1000 x18 <= 0
 c9:  - 75000000 x12 - 150000 x15 - 600 x18 + x28 <= 0
 c10: x7 <= 0
 c11: x1 + x5 - 42345147000 x13 - 11271000 x16 - 3757 x19 <= 0
 c12: x2 + x6 - 467417600 x13 - 551200 x16 - 848 x19 <= 0
 c13: x3 + x28 <= 0
 c14: x4 + x7 <= 0
 c15: x8 - 216 x14 - 36 x17 - 6 x20 <= 0
 c16: x9 <= 0
 c17: x10 <= 0
 c18: x11 <= 0
 c19: x8 <= 6
 c20: x9 <= 0
 c21: x10 <= 0
 c22: x11 <= 0
 c23: x1 <= 3757
 c24: x2 <= 848
 c25: x3 <= 0
 c26: x4 <= 82
 c27: x5 <= 5333
 c28: x6 <= 1163
 c29: x28 <= 606
 c30: x7 <= 0
 c31: x8 <= 6
 c32: x9 <= 0
 c33: x10 <= 0
 c34: x11 <= 0
 c35: x29 + x30  = 1
 c36: x31 + x32  = 1
 c37: x33 + x34  = 1
 c38: x31  = 1
 c39: x33  = 1
 c40: x35 - x36 >= 0.25
 c41: x35 - x37 >= 0.25
 c42: - 0.25 x29 + 0.75 x30 - x36 + x37 >= 0
 c43: 1.25 x29 - 0.25 x30 + x36 - x37 >= 0
 c44: x21 + x36 >= 12.5
 c45: x23 + x37 >= 13
 c46: x25 + x35 >= 15
 c47: x21 >= 0
 c48: x21 <= 0.5
 c49: x23 >= 0
 c50: x23 <= 0.75
 c51: x25 >= 0
 c52: x25 <= 0.5
 c53: x22 - x36 >= -12.5
 c54: x24 - x37 >= -13
 c55: x26 - x35 >= -15
 c56: x22 >= 0
 c57: x22 <= 0.5
 c58: x24 >= 0
 c59: x24 <= 0.25
 c60: x26 >= 0
 c61: x26 <= 0.5
 c62: x21 - x22 + x36  = 12.5
 c63: x23 - x24 + x37  = 13
 c64: x25 - x26 + x35  = 15
 c65: x36 >= 12
 c66: x36 <= 13
 c67: x37 >= 12.25
 c68: x37 <= 13.25
 c69: x35 >= 14.5
 c70: x35 <= 15.5
 c71: x21 >= 0
 c72: x23 >= 0
 c73: x25 >= 0
 c74: x22 >= 0
 c75: x24 >= 0
 c76: x26 >= 0
Bounds
 0 <= x12 <= 1
 0 <= x13 <= 1
 0 <= x14 <= 1
 0 <= x15 <= 1
 0 <= x16 <= 1
 0 <= x17 <= 1
 0 <= x18 <= 1
 0 <= x19 <= 1
 0 <= x20 <= 1
 0 <= x27 <= 1
 0 <= x29 <= 1
 0 <= x30 <= 1
 0 <= x31 <= 1
 0 <= x32 <= 1
 0 <= x33 <= 1
 0 <= x34 <= 1
Binaries
 x12  x13  x14  x15  x16  x17  x18  x19  x20  x27  x29  x30  x31  x32  x33 
 x34 
End
